p tw 36 41
1 2
2 13
3 4
4 5
4 9
5 6
6 7
7 8
7 34
8 29
9 10
10 11
11 12
12 14
13 24
14 15
15 16
16 17
17 18
17 20
18 19
19 11
20 21
21 22
22 23
23 25
24 31
24 32
25 26
26 27
27 28
27 34
28 29
29 30
31 32
31 34
32 33
33 29
34 35
35 36
36 3
